<number of tasks>
100

<cycle time>
1000

<order strength>
0.899


<task times>
1 149
2 50
3 81
4 79
5 145
6 249
7 117
8 219
9 265
10 135
11 216
12 95
13 228
14 228
15 191
16 45
17 154
18 114
19 105
20 37
21 155
22 112
23 118
24 194
25 220
26 256
27 284
28 221
29 258
30 90
31 73
32 92
33 33
34 160
35 140
36 175
37 151
38 86
39 33
40 57
41 94
42 243
43 137
44 159
45 26
46 187
47 26
48 75
49 179
50 54
51 30
52 58
53 151
54 143
55 177
56 62
57 227
58 59
59 106
60 183
61 172
62 147
63 81
64 102
65 208
66 244
67 159
68 45
69 171
70 30
71 25
72 182
73 79
74 104
75 99
76 180
77 292
78 73
79 182
80 113
81 54
82 241
83 54
84 137
85 33
86 93
87 209
88 243
89 74
90 58
91 181
92 131
93 68
94 252
95 169
96 89
97 76
98 188
99 42
100 139

<precedence relations>
1,5
2,10
2,11
3,5
3,6
3,7
4,5
4,6
4,7
5,8
5,9
5,10
5,11
6,8
6,9
6,10
6,11
7,8
7,9
7,10
7,11
8,12
8,13
8,14
8,15
8,16
9,12
10,12
10,13
10,14
10,15
10,16
11,12
11,13
11,14
11,15
11,16
12,17
12,18
12,20
12,21
12,22
13,17
13,18
13,22
14,17
14,20
14,21
14,22
15,17
15,18
15,19
16,17
16,27
17,24
17,28
18,23
18,24
18,25
19,23
19,24
19,25
20,23
20,24
20,25
21,36
21,38
22,39
22,46
22,47
22,48
23,26
23,27
23,28
24,29
25,26
25,27
25,28
26,40
27,29
27,30
28,29
28,30
29,31
29,32
29,34
29,35
30,31
30,32
30,33
30,35
31,36
32,38
32,41
32,42
33,36
34,36
35,36
35,37
35,38
36,39
36,40
37,51
38,39
38,44
38,52
39,54
40,41
40,42
41,43
41,44
41,45
42,43
43,46
43,47
44,47
44,55
45,46
45,47
45,48
46,49
46,50
47,53
48,49
49,51
49,52
49,53
49,54
50,52
50,53
51,62
52,58
53,56
53,57
53,58
54,55
54,56
54,57
54,58
55,62
55,63
56,59
56,60
56,61
56,62
56,63
57,59
57,60
57,61
57,62
57,63
58,59
58,60
58,61
58,62
58,63
59,64
60,64
61,64
62,64
63,64
64,65
65,66
65,67
65,68
65,69
66,70
66,71
66,72
67,70
67,71
67,72
68,70
68,71
68,72
69,70
69,71
69,72
70,73
70,74
70,75
70,76
71,73
71,75
72,73
73,81
73,84
74,78
74,80
75,88
75,90
76,77
76,79
77,86
77,94
77,99
78,86
78,87
79,84
80,92
80,100
81,82
81,83
81,88
81,96
82,86
82,98
83,85
84,85
84,87
84,88
85,92
85,93
85,95
87,89
87,90
87,91
87,94
88,92
88,93
90,97
91,95
91,96
93,94
94,98
94,100
95,99
95,100

<end>
